
Gurobi 11.0.1 (win64) logging started Mon Apr  1 12:41:22 2024

Set parameter LogFile to value "C:\Projetos\Job_Rotation_Algorithms\Outputs\GurobiLogs\gurobi_log-output-26_hes-c213-BorbaRittModel-NoExtraConstraint-2.log"
Gurobi Optimizer version 11.0.1 build v11.0.1rc0 (win64 - Windows 10.0 (19045.2))

CPU model: 11th Gen Intel(R) Core(TM) i7-1165G7 @ 2.80GHz, instruction set [SSE2|AVX|AVX2|AVX512]
Thread count: 4 physical cores, 8 logical processors, using up to 1 threads


Gurobi 11.0.1 (win64) logging started Mon Apr  1 21:29:14 2024

Set parameter LogFile to value "C:\Projetos\Job_Rotation_Algorithms\Outputs\GurobiLogs\gurobi_log-output-26_hes-c213-BorbaRittModel-NoExtraConstraint-2.log"
Gurobi Optimizer version 11.0.1 build v11.0.1rc0 (win64 - Windows 10.0 (19045.2))

CPU model: 11th Gen Intel(R) Core(TM) i7-1165G7 @ 2.80GHz, instruction set [SSE2|AVX|AVX2|AVX512]
Thread count: 4 physical cores, 8 logical processors, using up to 1 threads


Gurobi 11.0.1 (win64) logging started Wed Apr  3 01:53:30 2024

Set parameter LogFile to value "C:\Projetos\Job_Rotation_Algorithms\Outputs\GurobiLogs\gurobi_log-output-26_hes-c213-BorbaRittModel-NoExtraConstraint-2.log"
Gurobi Optimizer version 11.0.1 build v11.0.1rc0 (win64 - Windows 10.0 (19045.2))

CPU model: 11th Gen Intel(R) Core(TM) i7-1165G7 @ 2.80GHz, instruction set [SSE2|AVX|AVX2|AVX512]
Thread count: 4 physical cores, 8 logical processors, using up to 1 threads

WLS license 2390832 - registered to Bitka Analytics
Optimize a model with 1078 rows, 341 columns and 3457 nonzeros
Model fingerprint: 0xca687c55
Variable types: 2 continuous, 339 integer (339 binary)
Coefficient statistics:
  Matrix range     [1e+00, 2e+02]
  Objective range  [1e+00, 1e+00]
  Bounds range     [1e+00, 4e+02]
  RHS range        [1e+00, 4e+02]
Presolve removed 1 rows and 1 columns
Presolve time: 0.00s
Presolved: 1077 rows, 340 columns, 3455 nonzeros
Variable types: 0 continuous, 340 integer (339 binary)
Found heuristic solution: objective 32.0000000
Found heuristic solution: objective 34.0000000

Root relaxation: objective 5.600000e+01, 485 iterations, 0.01 seconds (0.01 work units)

    Nodes    |    Current Node    |     Objective Bounds      |     Work
 Expl Unexpl |  Obj  Depth IntInf | Incumbent    BestBd   Gap | It/Node Time

     0     0   56.00000    0   58   34.00000   56.00000  64.7%     -    0s
H    0     0                      41.0000000   56.00000  36.6%     -    0s
H    0     0                      42.0000000   56.00000  33.3%     -    0s
     0     0   56.00000    0  136   42.00000   56.00000  33.3%     -    0s
H    0     0                      43.0000000   56.00000  30.2%     -    0s
     0     0   56.00000    0   59   43.00000   56.00000  30.2%     -    0s
     0     0   56.00000    0   68   43.00000   56.00000  30.2%     -    0s
     0     0   56.00000    0   79   43.00000   56.00000  30.2%     -    0s
     0     0   56.00000    0   83   43.00000   56.00000  30.2%     -    0s
     0     0   56.00000    0   64   43.00000   56.00000  30.2%     -    0s
     0     0   56.00000    0   62   43.00000   56.00000  30.2%     -    0s
     0     0   56.00000    0   67   43.00000   56.00000  30.2%     -    0s
     0     0   56.00000    0   56   43.00000   56.00000  30.2%     -    0s
     0     0   56.00000    0   76   43.00000   56.00000  30.2%     -    0s
     0     0   56.00000    0   76   43.00000   56.00000  30.2%     -    0s
     0     2   56.00000    0   76   43.00000   56.00000  30.2%     -    0s
H   27    25                      44.0000000   56.00000  27.3%  53.7    0s
H   78    57                      45.0000000   56.00000  24.4%  35.8    0s
H  263   110                      46.0000000   56.00000  21.7%  47.1    1s
H  611   130                      48.0000000   56.00000  16.7%  46.6    1s
H  957   186                      49.0000000   56.00000  14.3%  48.6    2s
H 1088   183                      51.0000000   56.00000  9.80%  48.4    2s
H 1193   204                      52.0000000   56.00000  7.69%  49.5    2s
  1785   232   56.00000   18  148   52.00000   56.00000  7.69%  52.5    5s
* 2128   266              42      53.0000000   56.00000  5.66%  58.0    7s
  3008   199   54.98667   19   79   53.00000   56.00000  5.66%  56.8   10s
* 3590   204              32      54.0000000   56.00000  3.70%  56.0   12s
H 3968    53                      55.0000000   56.00000  1.82%  56.0   14s
  3990    66   55.00000   14   67   55.00000   56.00000  1.82%  55.7   15s

Cutting planes:
  Cover: 1
  Flow cover: 3
  Zero half: 1
  RLT: 2

Explored 4327 nodes (280780 simplex iterations) in 17.40 seconds (18.20 work units)
Thread count was 1 (of 8 available processors)

Solution count 10: 55 54 53 ... 44

Optimal solution found (tolerance 1.00e-03)
Best objective 5.500000000000e+01, best bound 5.500000000000e+01, gap 0.0000%
